&inputpp
    prefix = 'heo_bader'
    outdir = './out'
    filplot = 'heo_valence_charge'
    plot_num = 0    ! 0 extracts Valence Charge Density
/
&plot
    nfile = 1
    filepp(1) = 'heo_valence_charge'
    weight(1) = 1.0
    iflag = 3
    output_format = 6
    fileout = 'heo_charge_density.cube'
/
