&CONTROL
    calculation   = 'scf'
    restart_mode  = 'from_scratch'
    pseudo_dir    = './pseudo'
    outdir        = './out'
    prefix        = 'heo_bader'
    disk_io       = 'low'
    max_seconds = 55800 ! 15.5 hours
/

&SYSTEM
    ibrav         = 0
    nat           = 216
    ntyp          = 6
    ecutwfc       = 55.0
    ecutrho       = 440.0
    nspin         = 2
    occupations   = 'smearing'
    smearing      = 'mv'
    degauss       = 0.01
    starting_magnetization(1) =  0.16    
    starting_magnetization(2) =  0.21    
    starting_magnetization(3) =  0.0
    starting_magnetization(4) =  0.09
    starting_magnetization(5) =  0.0
    starting_magnetization(6) =  0.0
/

&ELECTRONS
    conv_thr      = 1.0e-5
    electron_maxstep = 450,           
    mixing_mode = 'local-TF'
    mixing_beta = 0.10
    mixing_ndim = 8,         
    diagonalization = 'davidson',
/

ATOMIC_SPECIES
  Co   58.93  Co_pbe_v1.2.uspp.F.UPF
  Cr   52.00  cr_pbe_v1.5.uspp.F.UPF
  Cu   63.55  Cu.paw.z_11.ld1.psl.v1.0.0-low.upf
  Ni   58.69  ni_pbe_v1.4.uspp.F.UPF
  O    16.00  O.pbe-n-kjpaw_psl.0.1.UPF
  Pd   106.42 Pd_ONCV_PBE-1.0.oncvpsp.upf

CELL_PARAMETERS angstrom
    13.384469958     0.000000000    -0.171521234
    -0.018676838    13.278035448    -0.151901041
     0.000000000     0.000000000    13.265505600

ATOMIC_POSITIONS angstrom
  Cr     12.889750764    11.267213876     1.992254739
  Cr      2.284600818     4.034368149     2.317401575
  Cr      2.391591260     9.131102488    11.107556332
  Cr      4.652297668     0.265724560    13.036122433
  Cr      4.121646678     4.298861039    13.031599497
  Cr      4.192869432     6.566994340     1.938426450
  Cr      4.183050577     6.685943098    11.188910071
  Cr      6.894544657     0.347076959     1.903463299
  Cr      6.252893212     6.344569587     4.040191848
  Cr      8.908892468     0.300113211    12.947850534
  Cr      9.024369329     0.391887673     4.513391426
  Cr      8.698797496    12.754679556     8.598770133
  Cr      9.078342834     2.400828145     1.894495970
  Cr      9.028033330     4.464424863     4.079201426
  Cr      9.333063409     4.925724794     8.752290875
  Cr     10.931033462     0.119308725     2.030373786
  Cr     11.450906763     4.237800665     2.055373247
  Cr     11.284527207     4.664109918     6.262754192
  Cr     11.297264597     6.544806610     3.907915335
  Cr     10.639646899     9.056047728     1.803761042
  Cr     10.748810914    11.258593775    -0.228828015
  Co      0.008459223    13.117995287    13.036760004
  Co     12.998202123    13.228018018     4.314870755
  Co      0.149373176    12.924275521     8.621270365
  Co     -0.002673905     2.002981025     2.256958937
  Co     13.234707754     2.135104648     6.539557266
  Co      0.238755354     6.855751777     6.379464081
  Co      2.380175033    13.264405678     6.538360744
  Co      2.419499326    13.218599775    10.775006206
  Co      2.130227745     1.865840296     4.535428875
  Co      2.297179432     4.123607303     6.636714914
  Co      2.229879082     7.032988189     4.238436510
  Co      2.083287021     6.717828707     8.996942522
  Co      1.956351977    11.100342829     4.323710348
  Co      4.618263521    11.522073683     1.803255144
  Co      4.586034246    11.053059480    11.004439779
  Co      6.369879059     8.645162639     5.964184243
  Co      6.396202324    10.789079786     8.789080922
  Co      9.575179374     4.279713713    12.608148698
  Co      8.845981902     8.298898296     4.260414343
  Co      8.767437544    10.823078860    10.934390519
  Co     11.191722253    13.084840962    10.604539002
  Co     11.471475809     8.973622464    11.181012289
  Cu      0.246214753     4.131487684     4.588509536
  Cu      0.011006826     4.497996516     8.523008858
  Cu      0.350720664    11.218749578    11.004272463
  Cu      1.989015781    13.244035843     2.215023267
  Cu      1.945641665     6.754940816     0.053136808
  Cu      2.530436128    11.465256173    -0.053917358
  Cu      4.077052910    12.855622634     4.295942456
  Cu      4.539359236     2.050456110     6.958918989
  Cu      4.563284370     2.249716401    10.748541730
  Cu      4.249032851     4.483260287     9.060611466
  Cu      4.633227597     8.956334728    -0.071118147
  Cu      4.492945860     8.024132722     8.130112807
  Cu      4.766420404    11.185865461     6.454345222
  Cu      5.789140103     1.325782761     4.599515271
  Cu      6.725288374     2.715882200     8.853576043
  Cu      6.397637453     4.654974896     6.677432536
  Cu      6.722509058     6.693003162     8.792049116
  Cu      8.964880914     1.778724168     9.964425277
  Cu      8.716558654     6.572197338     6.491033668
  Cu      8.649046719     8.681498116    12.954828967
  Cu      8.915263037    10.697061673     3.293169474
  Cu     11.075142085    11.129664051     4.988874935
  Ni      0.016686187     1.837132254    10.881609900
  Ni      0.280892807     6.313513988     2.243831152
  Ni      0.323550025     8.967975316     8.707744934
  Ni      2.107613683     1.973980733    13.156283927
  Ni      2.145360828     1.983880305     8.818765707
  Ni      1.934194379     4.092849132    10.749435847
  Ni      2.552976010    10.946352274     8.624544980
  Ni      4.540440014    13.190361377     8.822511326
  Ni      6.720437516    13.178597701    10.809179932
  Ni      6.763494181     2.477063853    12.858388814
  Ni      6.476570518     4.301168894     1.893980055
  Ni      6.742648159     8.654225430     2.030793414
  Ni      6.538467765     8.754449767    10.912798475
  Ni      6.843472780    11.114878295    -0.121621935
  Ni      8.930289793     2.737051638     6.649599258
  Ni      8.517688562     8.696074079     8.612440747
  Ni      8.565087157    10.592962273     6.416142335
  Ni     11.362664423     2.108137754    12.937885926
  Ni     11.208889890     2.322871472     4.293031794
  Ni     11.626046538     6.537813733    -0.078687003
  Ni     11.556997907     7.003709988     8.737796273
  Pd      0.188080348     4.375106572    13.059036094
  Pd      0.301081250     6.553320088    11.216988390
  Pd     13.345339713     9.245791784    -0.113347875
  Pd     13.015360596     8.927593889     3.946407216
  Pd      0.003208905    10.920860836     6.466691118
  Pd      2.154282225     9.298175626     1.836657012
  Pd      2.629860874     8.996875226     6.292525643
  Pd      4.585310559     2.275096967     2.264447135
  Pd      4.819157127     3.898012286     4.468097361
  Pd      4.118995924     6.127711517     6.141194700
  Pd      4.270645504     9.165495786     3.853570095
  Pd      6.850647701     0.287064620     6.846692805
  Pd      6.706169293     4.679239974    10.951868537
  Pd      6.682914896     6.646250137    -0.022024763
  Pd      6.533434998    11.421125162     4.004979145
  Pd      9.063482339     6.503140666     1.630486315
  Pd      9.231197929     6.842831585    10.978414359
  Pd     10.892563073     0.066741912     6.796277796
  Pd     11.353637311     2.239801559     8.632490553
  Pd     11.643959488     4.444038033    10.626698315
  Pd     11.002115387     8.432751782     6.450353701
  Pd     11.068063465    10.678136223     8.777398063
  O      12.874270619    13.275604107     2.012617051
  O      12.885985246    12.975863212     6.442574195
  O      13.342087294    13.036000497    10.744965624
  O       0.031518795     1.750109338     0.013707233
  O      13.251578465     2.018833671     4.357814728
  O      13.359820758     1.578782050     8.611113461
  O       0.182636152     4.119660141     2.650482248
  O      13.293362992     4.317813177     6.315941137
  O       0.070632140     3.789156030    10.363417072
  O       0.170476768     7.232651867     0.459410160
  O      13.353175338     6.921567414     3.980250038
  O       0.169271240     6.927577053     8.393741899
  O      12.586391116     9.329453366     1.744616166
  O       0.638581039     8.953743386     6.638655997
  O       0.424901480     9.388204424    11.295010928
  O      12.804338752    11.264135762    -0.054910457
  O      12.800757315    11.037871532     4.082697644
  O       0.523733271    11.006271135     8.424392842
  O       2.634253904     0.044135260    12.997039446
  O       1.616972393    13.113360456     4.642132538
  O       2.294519629    13.169927808     8.656513784
  O       1.996306851     1.925528651     2.165110483
  O       1.855684963     2.082031543     6.777758219
  O       2.043069134     2.001825836    10.961005798
  O       2.168757957     3.955964404     0.202468079
  O       2.701881510     3.752877117     4.275184976
  O       1.984673928     4.566230880     8.720978369
  O       2.278841642     6.053537755     2.455032662
  O       2.076832611     6.044429288     5.964365859
  O       2.262086901     7.119222789    11.145574105
  O       2.761617627     9.592428178    -0.111154415
  O       1.629032970     9.052740966     3.825240177
  O       2.271800560     8.879390106     9.162085408
  O       1.475012932    11.410960294     2.309572886
  O       2.814745635    11.306674073     6.466733058
  O       2.521619844    11.124649468    10.739315133
  O       4.902082688     0.337928127     1.755310690
  O       4.832592798    13.189466570     6.875042683
  O       4.648919876    13.210103027    10.901733711
  O       4.497490834     2.290465497    12.683162398
  O       3.976403619     1.361433622     5.120726852
  O       4.204942601     1.944095726     8.914867868
  O       4.242709239     4.331572276     1.774965754
  O       4.261400280     4.041137823     7.200649552
  O       3.797046425     4.690009789    11.071642023
  O       3.803568394     6.291955504    -0.034428130
  O       4.338004244     7.063956950     3.893638665
  O       4.098759042     6.581575615     9.231920413
  O       4.717300133     8.519767130     1.780899482
  O       4.631471383     9.168747577     6.664008347
  O       4.447943741     8.789690868    11.268864280
  O       4.834536589    11.557773541    13.069559865
  O       3.903236847    11.159757656     3.563128491
  O       4.538903081    11.144239218     8.965374161
  O       6.805221271     0.413198521    13.019666307
  O       7.215879684     0.410923330     3.852929394
  O       6.702953386    12.883139371     8.849905238
  O       7.119957140     2.415408358     1.640020535
  O       6.951172150     2.908024535     7.010784879
  O       6.696556941     2.586229753    10.771392640
  O       6.146902387     4.429297554    13.018602587
  O       6.894362979     4.515282527     3.879856060
  O       7.362554304     4.969441530     9.018850873
  O       6.151395651     6.305399515     2.001946557
  O       6.142078276     6.413336267     6.003584364
  O       6.178771459     6.674493846    11.260091087
  O       6.724210105     9.044938926    -0.005372101
  O       6.897518092     8.169336272     4.013261171
  O       6.482329196     8.585231164     8.871894654
  O       6.648388106    11.649936385     1.893666028
  O       6.605778581    10.732307289     5.937653053
  O       6.704202046    10.975740550    11.008589754
  O       8.934717172     0.414557263     1.727918685
  O       8.893305055     0.716221215     6.451726547
  O       8.761776502     0.205930380    10.952952221
  O       9.167832983     2.388474394    13.115159697
  O       9.164583646     2.419772450     3.992083551
  O       9.404915238     2.960693456     8.605665780
  O       9.433363025     4.305210330     2.085087623
  O       9.243202348     4.754544626     6.178976272
  O       9.681276446     4.861788264    10.676448337
  O       9.632319975     6.236274992    12.959798879
  O       9.260857722     6.415722330     3.750869747
  O       9.503435571     6.932421013     8.911818070
  O       8.677267527     9.203289324     2.255753136
  O       8.296742682     8.429355924     6.459391333
  O       8.590983143     8.843741103    10.717870133
  O       8.795337802    11.604542765    12.820971987
  O       9.199810268    11.721815967     4.792332097
  O       8.286158070    10.720621024     8.408261254
  O      10.911739012     0.052176704    -0.096747991
  O      10.943977116     0.333644367     4.022709646
  O      10.689945074    12.642531410     8.705980480
  O      11.186819690     2.197180260     1.963245484
  O      11.115812885     2.702298637     6.376958439
  O      11.397754521     1.752805708    10.883114147
  O      11.536181287     4.157733713     0.087103714
  O      11.110813682     4.456269361     4.145955909
  O      11.332820765     5.105737643     8.180672260
  O      11.660988918     6.181306714     1.956868570
  O      11.582173095     6.587641818     5.866100418
  O      11.774443274     7.013560830    11.280039705
  O      10.482192928     9.273860224    -0.206517408
  O      10.955208041     8.481279947     3.717119350
  O      11.781728169     8.856240913     9.229977750
  O      10.856815624    11.416216936     1.775157253
  O      10.529875280    10.315681574     6.792056866
  O      10.802259680    11.043429053    10.983747796

K_POINTS gamma

HUBBARD { atomic }
U Co-3d 3.3
U Cr-3d 3.5
U Ni-3d 6.2