&CONTROL
    calculation   = 'scf'
    restart_mode  = 'from_scratch'
    pseudo_dir    = './pseudo'
    outdir        = './out'
    prefix        = 'heo_bader'
    disk_io       = 'low'
    max_seconds = 55800 ! 15.5 hours
/
&SYSTEM
    ibrav         = 0
    nat           = 225
    ntyp          = 6
    ecutwfc       = 55.0
    ecutrho       = 440.0
    nspin         = 2
    occupations   = 'smearing'
    smearing      = 'mv'
    degauss       = 0.01
/
&ELECTRONS
    conv_thr      = 1.0e-5
    electron_maxstep = 450,           
    mixing_mode = 'local-TF'
    mixing_beta = 0.07
    mixing_ndim = 8,         
    diagonalization = 'davidson',
/

ATOMIC_SPECIES
  Co   58.93  Co_pbe_v1.2.uspp.F.UPF
  Cr   52.00  cr_pbe_v1.5.uspp.F.UPF
  Cu   63.55  Cu.paw.z_11.ld1.psl.v1.0.0-low.upf
  Ni   58.69  ni_pbe_v1.4.uspp.F.UPF
  O    16.00  O.pbe-n-kjpaw_psl.0.1.UPF
  Pd   106.42 Pd_ONCV_PBE-1.0.oncvpsp.upf

CELL_PARAMETERS angstrom
    11.918011674     0.000000000     0.130244253
    -0.059362630    11.825592468     0.113745667
     0.000000000     0.000000000    19.699564660

ATOMIC_POSITIONS angstrom
  Cr      2.724180837     2.216513250     5.988876863
  Cr      1.887970570     7.034131550     5.654595548
  Cr      2.801103004     5.844192070    18.043428606
  Cr      5.638465527     1.707538213    13.926436843
  Cr      6.441510881     5.505831122     6.334168478
  Cr      6.365557029     6.440665730    13.992224810
  Cr      5.533801183     9.086039294    17.721872307
  Cr     10.317156244     1.279131765     2.112643964
  Cr     10.773148818     2.938510726    10.029531397
  Cr      9.362908382     6.168936675     2.091144372
  Cr      9.458036186     6.330518968     9.068028223
  Co      1.095883897     5.472966855     1.586733746
  Co      1.284866887     6.498012640    13.664466841
  Co      1.887467669     8.947593890     2.682842654
  Co      2.033789641     9.601345280    14.126040357
  Co      5.754353458     1.934334629    10.242271681
  Co      6.649415149     2.215875732    17.752720603
  Co      6.094370476     5.858387038     1.847942410
  Co      6.336274915     5.821320546    17.616075889
  Co      9.567945869     6.399585395    13.188156270
  Co      9.375062257     9.817052601     1.845738971
  Co     10.034857947     9.806411460    18.096871139
  Cu      2.329151233     1.949528032    14.252673717
  Cu      2.078362089     9.931562415     5.590157518
  Cu      2.006014817     9.281641570     9.376918785
  Cu      1.898023468     9.210246211    17.568773993
  Cu      5.807309566     1.679353096     1.494783001
  Cu      6.057426060     5.216671854    11.302122636
  Cu      5.461278168     9.944876376     2.564447091
  Cu      5.544253534    10.092830621    10.000352988
  Cu      5.881803046    10.052264227    13.994612406
  Cu     10.185935299     2.051298489     5.878454647
  Cu      9.629288215     4.771234069    18.481112893
  Cu      9.879754368     9.699374238    13.080955487
  Ni      1.863652717     2.130925170     2.232413627
  Ni      1.709459758     2.258819898    10.345800168
  Ni      2.012174465     1.343701983    17.751737898
  Ni      1.868187465     6.153318851    10.136389383
  Ni      5.712033624     2.321762560     6.308483330
  Ni      5.620181952     9.898156299     6.286242113
  Ni      9.292416486     1.343098996    13.691184553
  Ni     10.178733008     1.368270243    18.332107583
  Ni      9.691977234     6.342767089     5.721751497
  Ni      9.818689061    10.223268088     6.179276475
  Ni      9.256730442    10.007394972     9.325699187
  Pd      0.349561189    10.630708707    19.733409757
  Pd      0.114859422    11.551274199     4.236696829
  Pd      0.174329558    11.616783251     7.198535030
  Pd     11.707523601    11.486759325    11.018088416
  Pd      0.005275642    11.576805890    15.809401027
  Pd      0.604532225     3.747400881    18.806371901
  Pd     11.144352647     3.964663977     3.865366578
  Pd      0.273297383     4.192568924     6.224328835
  Pd      0.323119021     4.028050217    12.758661466
  Pd     11.222128777     2.663087237    16.001069012
  Pd     11.574321183     7.907526410     1.326383182
  Pd     11.133775039     8.428243433     4.282006664
  Pd     11.243012247     8.192050165     7.817706728
  Pd     11.110097277     8.155927119    10.955628656
  Pd     11.570809036     7.200904806    18.121161054
  Pd      2.966423905    11.522975911     0.311281644
  Pd      3.687416853    11.544304077     3.769981782
  Pd      3.639042772    11.075511102     7.869844618
  Pd      2.785624238    10.963495306    11.652738030
  Pd      3.562598150    11.348682761    15.384528867
  Pd      3.681325727     3.035495011    19.657520224
  Pd      4.485407693     3.348756730     3.628111765
  Pd      4.370070363     4.278378143     9.088874164
  Pd      3.107902311     3.882524003    12.124415876
  Pd      4.309198808     2.981259296    16.523623467
  Pd      3.760539735     7.486086892     1.020300583
  Pd      4.835346365     7.387927497     3.879028892
  Pd      4.233689400     7.136450597     8.533242967
  Pd      3.775171650     7.545810746    11.921688116
  Pd      3.918499562     7.565113305    15.519764940
  Pd      7.293147062    11.406361024    18.858762979
  Pd      7.134957726     0.267045884     4.109524372
  Pd      7.334951884     0.178744303     7.460078662
  Pd      7.924758247    11.626552965    11.141680382
  Pd      9.081488294    10.954348920    15.622805596
  Pd      7.359208782     3.889244842     0.353851271
  Pd      7.930079115     3.247441203     3.263227843
  Pd      8.229192237     3.293929735     7.939216810
  Pd      7.654971734     3.364414050    12.531278154
  Pd      8.828866982     4.322241394    15.683547534
  Pd      7.212692484     8.634604160     0.432872451
  Pd      7.727539765     9.516346233     4.319638539
  Pd      6.983320245     7.860853753     7.897081348
  Pd      7.275634021     8.672160705    12.096472872
  Pd      9.059815463     7.194512246    16.004857598
  O       3.010266376     0.463279411     1.979242871
  O       1.576538298     0.969663106     6.088090154
  O       1.731499496     0.319756570    10.552844574
  O       2.139796018    11.333460977    13.511011509
  O       1.823594030    11.152045272    18.373869386
  O       0.843282182     3.895738866     2.469287678
  O       2.086106032     3.529330334     6.792054816
  O       1.582108515     4.358429362    10.893388649
  O       1.972320671     4.707384857    13.710822456
  O       3.104278642     3.865168172    17.859958649
  O       1.698455472     7.313050447     1.477495706
  O       2.315136858     8.351120821     6.608275857
  O       3.064998312     7.830498167    10.011044206
  O       1.949139054     7.870696785    14.809530266
  O       1.651029361     7.244257073    17.978797026
  O       5.601316687     0.086741312     2.708518766
  O       6.147655648     0.311167642     5.867612988
  O       6.011378473     0.166476197    10.584562826
  O       5.180690112     0.001654164    13.989355975
  O       5.967179175     0.576291394    17.785896479
  O       6.215933749     4.253031759     2.822472556
  O       7.147216086     3.920154694     6.327054082
  O       6.067827903     3.801723869     9.999363062
  O       6.271626360     4.667852257    13.314054743
  O       5.978644087     3.911724465    17.185064146
  O       5.738431731     7.519113052     1.109232399
  O       5.298500003     7.959645817     6.875473665
  O       5.714119955     8.291027299     9.317058006
  O       6.823044260     8.345246103    14.017761842
  O       6.666656634     7.862328641    18.258618275
  O       9.389350745    11.717206774     2.011227059
  O      10.723853243     0.227660039     5.736485477
  O       8.512005890    11.822776321     9.186741911
  O      10.017279597    11.386166578    13.916402416
  O      10.692214129    11.340841092    18.852143187
  O       9.524900635     4.445278997     2.758513699
  O      10.259801805     4.420496221     5.632048765
  O      10.804131873     3.421577427    11.633130676
  O      10.011319225     3.112303772    14.495666295
  O       9.715558369     3.357228466    17.175044005
  O       9.581029781     8.011162710     1.360225262
  O      10.105510020     8.245088893     6.169004539
  O       8.724785317     7.898325863     9.013185995
  O       9.375051780     8.135585208    12.099339929
  O       9.731460539     7.931923199    17.754418310
  O       0.053582589     1.044488005     2.517331727
  O      11.881741162     2.639009503     5.187646374
  O      11.744059591     1.500766901     9.945151866
  O       0.632908663     1.522175362    14.895290780
  O       0.132799627     2.121265435    17.689825455
  O      11.237866505     5.957642665     1.374254544
  O       0.885969397     6.087511085     6.597220334
  O      10.426144974     6.276696440    10.409304402
  O      11.470132785     5.829420249    13.437461371
  O      11.406213676     5.183064111    18.049478297
  O      11.274359518     9.871061974     1.692805506
  O       0.140932451     9.861951301     5.277734171
  O       0.558252150     8.039643230     9.343733283
  O       0.000379396     9.724535906    11.725695607
  O      11.858561635     9.157380610    18.347695950
  O       4.076023421     2.515272180     1.828712781
  O       4.532997955     3.605695753     5.553846462
  O       3.695250240     2.853374856    10.410176282
  O       4.044242293     2.660422104    13.660791289
  O       3.731591700     1.178037731    18.763621977
  O       4.324316629     5.988359405     2.493681800
  O       3.207778569     6.247685187     5.155801010
  O       4.156169913     5.552938370    11.390861288
  O       4.441030899     6.833047047    13.728677055
  O       4.064954224     6.387936359    18.989303758
  O       3.875788945     8.699219316     2.666770156
  O       3.805348278    10.696706392     5.771799934
  O       3.563075664    10.413263970     9.803167597
  O       4.210168433     9.519330894    14.778375982
  O       3.857058546     8.624300522    17.345642707
  O       7.648578235     2.192986352     1.487492489
  O       8.590584610     1.695038089     6.810807582
  O       9.223531816     2.618910608     9.505582250
  O       7.460729239     2.108401673    14.129190013
  O       8.228190997     1.345442001    18.356046395
  O       7.695623078     6.490979250     2.550859925
  O       7.834472119     6.575754557     6.513928228
  O       8.325171085     5.121454194     8.983083529
  O       8.258314437     5.982414798    14.583210869
  O       8.249016745     5.665409097    17.149817045
  O       7.510355770     9.609208826     2.219935167
  O       7.838200225    10.153684292     6.344775722
  O       7.515577545     9.791827312    10.381182934
  O       7.445710476    10.565926692    12.880183861
  O       8.441147877    10.433919141    17.400848779
  O       1.752767934     2.474864604     0.150758026
  O       2.815938442     2.321499796     4.176931909
  O       3.943132368     1.527443072     6.937529435
  O       1.663285494     2.453303592    12.517813018
  O       3.013878566     1.435917717    15.951080257
  O       1.741357047     5.169152248    19.557127531
  O       1.082942514     7.570786397     4.177462380
  O       2.896424302     5.568888611     8.578479872
  O       1.879312297     6.876097525    11.993515442
  O       3.209602265     5.868195894    16.368583093
  O       1.965393133     9.936578003     0.999554634
  O       1.900869272    10.647261698     3.811609300
  O       1.682761235    10.739016234     8.144606958
  O       2.914919335     9.219556500    12.546094699
  O       1.766982868    10.413036564    15.850173820
  O       5.754171924     2.776745608    19.579662321
  O       6.562679108     2.133912906     4.149696747
  O       6.507470693     1.856445246     8.269749840
  O       6.051862371     2.208302032    12.132364830
  O       5.733636564     1.953219745    15.674623254
  O       6.386905736     5.460989658    19.429908917
  O       5.867054181     5.939585103     4.863511745
  O       5.356930082     5.494653572     7.709088738
  O       6.922436808     6.700148201    12.102008604
  O       5.772858945     6.734871925    15.939919190
  O       5.752444282    10.060991277    19.219666301
  O       5.780736978     9.089775353     4.508418122
  O       5.689598730    10.794155660     8.106607749
  O       5.341701978     9.015511342    11.766022551
  O       6.141754463     9.867165914    16.470145314
  O      10.365551344     2.091008710     0.679487810
  O       9.531170255     1.988827905     3.515690285
  O      11.492559414     3.990137368     9.042595313
  O       8.683475150     1.617661936    11.881902526
  O      10.268920603     0.786654021    16.237784798
  O       8.891322358     5.218069047     0.424776599
  O      10.096715041     6.781732017     3.824670462
  O      10.491577584     6.241751459     7.732622293
  O       8.931275509     4.949493168    12.340645922
  O       9.902712328     7.993087646    14.402302109
  O       8.703608622     9.993503212    19.723725593
  O       9.641923256     9.695393153     3.801218239
  O      10.764141545    10.193528497     8.016577987
  O       9.784652669    10.813461649    11.251149885
  O      10.741421414    10.005729101    16.338953531

K_POINTS gamma

HUBBARD { atomic }
U Co-3d 3.3
U Cr-3d 3.5
U Ni-3d 6.2